Name:		mgval_0.40_8C
Optimal value:	-1
#Vehicles:	9
Capacity:	65
Depot Node:	1
#Nodes:		30
#Edges:		28
#Arcs:		55
#Required N:	23
#Required E:	16
#Required A:	33

ReN.	DEMAND	S. COST
N2	16	16
N3	3	3
N4	10	10
N6	3	3
N7	9	9
N8	33	33
N9	20	20
N12	4	4
N14	4	4
N15	16	16
N16	18	18
N17	12	12
N18	13	13
N20	8	8
N21	9	9
N22	6	6
N23	12	12
N24	6	6
N25	2	2
N27	11	11
N28	5	5
N29	5	5
N30	7	7

ReE.	FROM N.	TO N.	T. COST	DEMAND	S. COST
E13	17	22	5	6	6
E14	3	10	6	12	12
E15	16	17	9	13	13
E16	15	19	7	11	11
E17	21	28	5	8	8
E18	12	13	3	6	6
E19	5	8	8	11	11
E20	11	20	10	13	13
E21	10	15	5	7	7
E22	24	27	5	9	9
E23	1	5	3	7	7
E24	20	24	2	5	5
E25	10	19	10	12	12
E26	17	18	5	10	10
E27	14	15	9	10	10
E28	26	30	3	4	4

EDGE	FROM N.	TO N.	T. COST
NrE1	22	25	2
NrE2	1	8	7
NrE3	4	6	3
NrE4	8	9	7
NrE5	7	8	8
NrE6	1	9	10
NrE7	16	21	7
NrE8	20	27	5
NrE9	18	19	2
NrE10	27	28	10
NrE11	1	2	4
NrE12	24	28	2

ReA.	FROM N.	TO N.	T. COST	DEMAND	S. COST
A23	16	11	5	6	6
A24	11	12	5	3	3
A25	17	14	4	4	4
A26	9	10	3	5	5
A27	14	8	7	6	6
A28	11	16	5	6	6
A29	7	4	1	2	2
A30	9	15	3	4	4
A31	26	18	9	12	12
A32	20	16	3	5	5
A33	30	29	6	7	7
A34	7	12	8	11	11
A35	14	13	5	8	8
A36	13	16	8	5	5
A37	29	30	6	6	6
A38	21	20	7	5	5
A39	29	28	7	5	5
A40	4	5	5	11	11
A41	20	21	7	4	4
A42	8	14	7	6	6
A43	13	8	6	5	5
A44	22	21	5	4	4
A45	10	9	3	5	5
A46	12	11	5	4	4
A47	23	18	3	7	7
A48	6	11	7	10	10
A49	22	29	4	3	3
A50	26	23	7	10	10
A51	29	22	4	4	4
A52	7	6	3	3	3
A53	25	29	3	5	5
A54	21	29	8	5	5
A55	15	9	3	4	4

ARC	FROM N.	TO N.	T. COST
NrA1	30	25	1
NrA2	9	2	5
NrA3	21	24	5
NrA4	16	12	6
NrA5	16	13	8
NrA6	4	7	1
NrA7	12	16	6
NrA8	25	30	1
NrA9	18	15	3
NrA10	3	2	3
NrA11	28	29	7
NrA12	6	7	3
NrA13	21	22	5
NrA14	14	17	4
NrA15	29	21	8
NrA16	8	13	6
NrA17	23	22	10
NrA18	30	23	3
NrA19	17	13	7
NrA20	2	9	5
NrA21	15	8	10
NrA22	2	3	3
